55 55
10 42
6 31
3 19
22 40
17 45
20 35
21 34
27 55
13 27
19 30
25 23
20 54
9 49
23 43
18 48
19 13
3 33
22 11
7 15
8 38
4 52
15 6
5 9
26 1
16 12
16 47
10 50
13 18
14 24
11 39
2 46
21 41
7 2
1 51
1 8
5 36
2 20
23 4
25 37
27 53
1 17
15 14
8 32
14 29
4 5
26 21
17 10
6 3
12 28
18 25
24 16
24 7
12 44
9 22
11 26
